p tdp 91 90
6 39
64 14
57 50
86 36
40 41
71 83
85 30
78 58
72 73
79 85
76 3
58 53
23 3
64 10
13 55
90 62
80 42
12 13
18 19
71 58
75 10
24 22
63 47
86 80
38 47
76 57
82 88
87 70
49 64
5 51
61 74
10 31
54 91
13 51
52 70
27 37
4 33
41 35
59 69
43 65
24 86
45 2
58 9
62 8
59 32
45 60
7 77
60 29
56 76
39 74
11 16
67 47
58 89
66 28
3 43
44 91
12 81
77 84
25 74
21 48
16 28
91 68
17 52
82 15
81 68
74 38
21 20
46 26
18 72
37 46
83 64
45 47
66 33
21 9
43 32
24 41
37 88
35 77
90 63
17 25
34 72
34 1
85 31
62 27
24 3
18 27
74 79
16 13
44 57
17 4
